WARNING: for repeatability, setting FPU to use double precision
============================[ Problem Statistics ]=============================
|                                                                             |
|  Number of variables:           100                                         |
|  Number of clauses:             449                                         |
|  Parse time:                   0.00 s                                       |
|  Eliminated clauses:           0.00 Mb                                      |
|  Simplification time:          0.00 s                                       |
|                                                                             |
============================[ Search Statistics ]==============================
| Conflicts |          ORIGINAL         |          LEARNT          | Progress |
|           |    Vars  Clauses Literals |    Limit  Clauses Lit/Cl |          |
===============================================================================
|       100 |      99      444     1332 |      162      100      7 |  0.010 % |
|       250 |      99      444     1332 |      179      167      6 |  0.040 % |
===============================================================================
restarts              : 3
conflicts             : 350            (112504 /sec)
decisions             : 436            (0.00 % random) (140148 /sec)
propagations          : 7833           (2517840 /sec)
conflict literals     : 1961           (21.72 % deleted)
Memory used           : 13.00 MB
CPU time              : 0.003111 s

SATISFIABLE
